p cnf 251 1127
-83 -251 0
-83 -250 0
-75 -249 0
-75 -248 0
-74 247 0
-82 -247 0
-74 -246 0
-66 -245 0
-66 244 0
-76 -244 0
-65 -243 0
-65 242 0
-73 243 0
-73 -242 0
-81 -243 0
-81 -242 0
-65 -241 0
-57 -240 0
-57 -239 0
-57 238 0
-67 239 0
-67 -238 0
-77 -239 0
-77 -238 0
-56 237 0
-56 236 0
-64 -237 0
-64 236 0
-72 237 0
-72 -236 0
-80 -237 0
-80 -236 0
-56 -235 0
-48 -234 0
-48 233 0
-48 232 0
-58 -233 0
-58 232 0
-68 233 0
-68 -232 0
-78 -233 0
-78 -232 0
-47 -231 0
-47 -230 0
-47 229 0
-55 231 0
-55 230 0
-55 -229 0
-63 -231 0
-63 230 0
-63 -229 0
-71 231 0
-71 -230 0
-71 -229 0
-79 -231 0
-79 -230 0
-79 -229 0
-47 -228 0
-39 -227 0
-39 -226 0
-39 -225 0
-39 224 0
-49 226 0
-49 225 0
-49 -224 0
-59 -226 0
-59 225 0
-59 -224 0
-69 226 0
-69 -225 0
-69 -224 0
-79 -226 0
-79 -225 0
-79 -224 0
-38 223 0
-38 -222 0
-38 221 0
-46 -223 0
-46 -222 0
-46 221 0
-54 223 0
-54 222 0
-54 -221 0
-62 -223 0
-62 222 0
-62 -221 0
-70 223 0
-70 -222 0
-70 -221 0
-78 -223 0
-78 -222 0
-78 -221 0
-38 -220 0
-30 -219 0
-30 218 0
-30 -217 0
-30 216 0
-40 -218 0
-40 -217 0
-40 216 0
-50 218 0
-50 217 0
-50 -216 0
-60 -218 0
-60 217 0
-60 -216 0
-70 218 0
-70 -217 0
-70 -216 0
-80 -218 0
-80 -217 0
-80 -216 0
-29 -215 0
-29 214 0
-29 213 0
-37 215 0
-37 -214 0
-37 213 0
-45 -215 0
-45 -214 0
-45 213 0
-53 215 0
-53 214 0
-53 -213 0
-61 -215 0
-61 214 0
-61 -213 0
-69 215 0
-69 -214 0
-69 -213 0
-77 -215 0
-77 -214 0
-77 -213 0
-29 -212 0
-21 -211 0
-21 -210 0
-21 209 0
-21 208 0
-31 210 0
-31 -209 0
-31 208 0
-41 -210 0
-41 -209 0
-41 208 0
-51 210 0
-51 209 0
-51 -208 0
-61 -210 0
-61 209 0
-61 -208 0
-71 210 0
-71 -209 0
-71 -208 0
-81 -210 0
-81 -209 0
-81 -208 0
-20 207 0
-20 206 0
-20 205 0
-28 -207 0
-28 206 0
-28 205 0
-36 207 0
-36 -206 0
-36 205 0
-44 -207 0
-44 -206 0
-44 205 0
-52 207 0
-52 206 0
-52 -205 0
-60 -207 0
-60 206 0
-60 -205 0
-68 207 0
-68 -206 0
-68 -205 0
-76 -207 0
-76 -206 0
-76 -205 0
-20 -204 0
-12 -203 0
-12 202 0
-12 201 0
-12 200 0
-22 -202 0
-22 201 0
-22 200 0
-32 202 0
-32 -201 0
-32 200 0
-42 -202 0
-42 -201 0
-42 200 0
-52 202 0
-52 201 0
-52 -200 0
-62 -202 0
-62 201 0
-62 -200 0
-72 202 0
-72 -201 0
-72 -200 0
-82 -202 0
-82 -201 0
-82 -200 0
-11 -199 0
-11 -198 0
-11 -197 0
-11 196 0
-19 199 0
-19 198 0
-19 197 0
-19 -196 0
-27 -199 0
-27 198 0
-27 197 0
-27 -196 0
-35 199 0
-35 -198 0
-35 197 0
-35 -196 0
-43 -199 0
-43 -198 0
-43 197 0
-43 -196 0
-51 199 0
-51 198 0
-51 -197 0
-51 -196 0
-59 -199 0
-59 198 0
-59 -197 0
-59 -196 0
-67 199 0
-67 -198 0
-67 -197 0
-67 -196 0
-75 -199 0
-75 -198 0
-75 -197 0
-75 -196 0
-11 -195 0
-10 194 0
-10 193 0
-10 192 0
-18 -194 0
-18 193 0
-18 192 0
-26 194 0
-26 -193 0
-26 192 0
-34 -194 0
-34 -193 0
-34 192 0
-42 194 0
-42 193 0
-42 -192 0
-50 -194 0
-50 193 0
-50 -192 0
-58 194 0
-58 -193 0
-58 -192 0
-66 -194 0
-66 -193 0
-66 -192 0
-10 191 0
-20 -191 0
-9 -190 0
-9 189 0
-9 188 0
-17 190 0
-17 -189 0
-17 188 0
-25 -190 0
-25 -189 0
-25 188 0
-33 190 0
-33 189 0
-33 -188 0
-41 -190 0
-41 189 0
-41 -188 0
-49 190 0
-49 -189 0
-49 -188 0
-57 -190 0
-57 -189 0
-57 -188 0
-9 -187 0
-9 186 0
-19 187 0
-19 -186 0
-29 -187 0
-29 -186 0
-8 185 0
-8 -184 0
-8 183 0
-16 -185 0
-16 -184 0
-16 183 0
-24 185 0
-24 184 0
-24 -183 0
-32 -185 0
-32 184 0
-32 -183 0
-40 185 0
-40 -184 0
-40 -183 0
-48 -185 0
-48 -184 0
-48 -183 0
-8 182 0
-8 181 0
-18 -182 0
-18 181 0
-28 182 0
-28 -181 0
-38 -182 0
-38 -181 0
-7 -180 0
-7 -179 0
-7 178 0
-15 180 0
-15 179 0
-15 -178 0
-23 -180 0
-23 179 0
-23 -178 0
-31 180 0
-31 -179 0
-31 -178 0
-39 -180 0
-39 -179 0
-39 -178 0
-7 -177 0
-7 -176 0
-7 175 0
-17 177 0
-17 176 0
-17 -175 0
-27 -177 0
-27 176 0
-27 -175 0
-37 177 0
-37 -176 0
-37 -175 0
-47 -177 0
-47 -176 0
-47 -175 0
-6 174 0
-6 173 0
-14 -174 0
-14 173 0
-22 174 0
-22 -173 0
-30 -174 0
-30 -173 0
-6 172 0
-6 -171 0
-6 170 0
-16 -172 0
-16 -171 0
-16 170 0
-26 172 0
-26 171 0
-26 -170 0
-36 -172 0
-36 171 0
-36 -170 0
-46 172 0
-46 -171 0
-46 -170 0
-56 -172 0
-56 -171 0
-56 -170 0
-5 -169 0
-5 168 0
-13 169 0
-13 -168 0
-21 -169 0
-21 -168 0
-5 -167 0
-5 166 0
-5 165 0
-15 167 0
-15 -166 0
-15 165 0
-25 -167 0
-25 -166 0
-25 165 0
-35 167 0
-35 166 0
-35 -165 0
-45 -167 0
-45 166 0
-45 -165 0
-55 167 0
-55 -166 0
-55 -165 0
-65 -167 0
-65 -166 0
-65 -165 0
-4 164 0
-12 -164 0
-4 163 0
-4 162 0
-4 161 0
-14 -163 0
-14 162 0
-14 161 0
-24 163 0
-24 -162 0
-24 161 0
-34 -163 0
-34 -162 0
-34 161 0
-44 163 0
-44 162 0
-44 -161 0
-54 -163 0
-54 162 0
-54 -161 0
-64 163 0
-64 -162 0
-64 -161 0
-74 -163 0
-74 -162 0
-74 -161 0
-3 -160 0
-3 -159 0
-3 -158 0
-3 -157 0
-3 156 0
-13 159 0
-13 158 0
-13 157 0
-13 -156 0
-23 -159 0
-23 158 0
-23 157 0
-23 -156 0
-33 159 0
-33 -158 0
-33 157 0
-33 -156 0
-43 -159 0
-43 -158 0
-43 157 0
-43 -156 0
-53 159 0
-53 158 0
-53 -157 0
-53 -156 0
-63 -159 0
-63 158 0
-63 -157 0
-63 -156 0
-73 159 0
-73 -158 0
-73 -157 0
-73 -156 0
-83 -159 0
-83 -158 0
-83 -157 0
-83 -156 0
83 74 65 56 47 38 29 20 11 0
-11 -155 0
-11 -154 0
-11 -153 0
-11 152 0
-20 155 0
-20 154 0
-20 153 0
-20 -152 0
-29 -155 0
-29 154 0
-29 153 0
-29 -152 0
-38 155 0
-38 -154 0
-38 153 0
-38 -152 0
-47 -155 0
-47 -154 0
-47 153 0
-47 -152 0
-56 155 0
-56 154 0
-56 -153 0
-56 -152 0
-65 -155 0
-65 154 0
-65 -153 0
-65 -152 0
-74 155 0
-74 -154 0
-74 -153 0
-74 -152 0
-83 -155 0
-83 -154 0
-83 -153 0
-83 -152 0
82 73 64 55 46 37 28 19 10 0
-10 -151 0
-10 -150 0
-10 -149 0
-10 148 0
-19 151 0
-19 150 0
-19 149 0
-19 -148 0
-28 -151 0
-28 150 0
-28 149 0
-28 -148 0
-37 151 0
-37 -150 0
-37 149 0
-37 -148 0
-46 -151 0
-46 -150 0
-46 149 0
-46 -148 0
-55 151 0
-55 150 0
-55 -149 0
-55 -148 0
-64 -151 0
-64 150 0
-64 -149 0
-64 -148 0
-73 151 0
-73 -150 0
-73 -149 0
-73 -148 0
-82 -151 0
-82 -150 0
-82 -149 0
-82 -148 0
81 72 63 54 45 36 27 18 9 0
-9 -147 0
-9 -146 0
-9 -145 0
-9 144 0
-18 147 0
-18 146 0
-18 145 0
-18 -144 0
-27 -147 0
-27 146 0
-27 145 0
-27 -144 0
-36 147 0
-36 -146 0
-36 145 0
-36 -144 0
-45 -147 0
-45 -146 0
-45 145 0
-45 -144 0
-54 147 0
-54 146 0
-54 -145 0
-54 -144 0
-63 -147 0
-63 146 0
-63 -145 0
-63 -144 0
-72 147 0
-72 -146 0
-72 -145 0
-72 -144 0
-81 -147 0
-81 -146 0
-81 -145 0
-81 -144 0
80 71 62 53 44 35 26 17 8 0
-8 -143 0
-8 -142 0
-8 -141 0
-8 140 0
-17 143 0
-17 142 0
-17 141 0
-17 -140 0
-26 -143 0
-26 142 0
-26 141 0
-26 -140 0
-35 143 0
-35 -142 0
-35 141 0
-35 -140 0
-44 -143 0
-44 -142 0
-44 141 0
-44 -140 0
-53 143 0
-53 142 0
-53 -141 0
-53 -140 0
-62 -143 0
-62 142 0
-62 -141 0
-62 -140 0
-71 143 0
-71 -142 0
-71 -141 0
-71 -140 0
-80 -143 0
-80 -142 0
-80 -141 0
-80 -140 0
79 70 61 52 43 34 25 16 7 0
-7 -139 0
-7 -138 0
-7 -137 0
-7 136 0
-16 139 0
-16 138 0
-16 137 0
-16 -136 0
-25 -139 0
-25 138 0
-25 137 0
-25 -136 0
-34 139 0
-34 -138 0
-34 137 0
-34 -136 0
-43 -139 0
-43 -138 0
-43 137 0
-43 -136 0
-52 139 0
-52 138 0
-52 -137 0
-52 -136 0
-61 -139 0
-61 138 0
-61 -137 0
-61 -136 0
-70 139 0
-70 -138 0
-70 -137 0
-70 -136 0
-79 -139 0
-79 -138 0
-79 -137 0
-79 -136 0
78 69 60 51 42 33 24 15 6 0
-6 -135 0
-6 -134 0
-6 -133 0
-6 132 0
-15 135 0
-15 134 0
-15 133 0
-15 -132 0
-24 -135 0
-24 134 0
-24 133 0
-24 -132 0
-33 135 0
-33 -134 0
-33 133 0
-33 -132 0
-42 -135 0
-42 -134 0
-42 133 0
-42 -132 0
-51 135 0
-51 134 0
-51 -133 0
-51 -132 0
-60 -135 0
-60 134 0
-60 -133 0
-60 -132 0
-69 135 0
-69 -134 0
-69 -133 0
-69 -132 0
-78 -135 0
-78 -134 0
-78 -133 0
-78 -132 0
77 68 59 50 41 32 23 14 5 0
-5 -131 0
-5 -130 0
-5 -129 0
-5 128 0
-14 131 0
-14 130 0
-14 129 0
-14 -128 0
-23 -131 0
-23 130 0
-23 129 0
-23 -128 0
-32 131 0
-32 -130 0
-32 129 0
-32 -128 0
-41 -131 0
-41 -130 0
-41 129 0
-41 -128 0
-50 131 0
-50 130 0
-50 -129 0
-50 -128 0
-59 -131 0
-59 130 0
-59 -129 0
-59 -128 0
-68 131 0
-68 -130 0
-68 -129 0
-68 -128 0
-77 -131 0
-77 -130 0
-77 -129 0
-77 -128 0
76 67 58 49 40 31 22 13 4 0
-4 -127 0
-4 -126 0
-4 -125 0
-4 124 0
-13 127 0
-13 126 0
-13 125 0
-13 -124 0
-22 -127 0
-22 126 0
-22 125 0
-22 -124 0
-31 127 0
-31 -126 0
-31 125 0
-31 -124 0
-40 -127 0
-40 -126 0
-40 125 0
-40 -124 0
-49 127 0
-49 126 0
-49 -125 0
-49 -124 0
-58 -127 0
-58 126 0
-58 -125 0
-58 -124 0
-67 127 0
-67 -126 0
-67 -125 0
-67 -124 0
-76 -127 0
-76 -126 0
-76 -125 0
-76 -124 0
75 66 57 48 39 30 21 12 3 0
-3 -123 0
-3 -122 0
-3 -121 0
-3 120 0
-12 123 0
-12 122 0
-12 121 0
-12 -120 0
-21 -123 0
-21 122 0
-21 121 0
-21 -120 0
-30 123 0
-30 -122 0
-30 121 0
-30 -120 0
-39 -123 0
-39 -122 0
-39 121 0
-39 -120 0
-48 123 0
-48 122 0
-48 -121 0
-48 -120 0
-57 -123 0
-57 122 0
-57 -121 0
-57 -120 0
-66 123 0
-66 -122 0
-66 -121 0
-66 -120 0
-75 -123 0
-75 -122 0
-75 -121 0
-75 -120 0
-83 -119 0
-83 -118 0
-83 -117 0
-83 116 0
-82 119 0
-82 118 0
-82 117 0
-82 -116 0
-81 -119 0
-81 118 0
-81 117 0
-81 -116 0
-80 119 0
-80 -118 0
-80 117 0
-80 -116 0
-79 -119 0
-79 -118 0
-79 117 0
-79 -116 0
-78 119 0
-78 118 0
-78 -117 0
-78 -116 0
-77 -119 0
-77 118 0
-77 -117 0
-77 -116 0
-76 119 0
-76 -118 0
-76 -117 0
-76 -116 0
-75 -119 0
-75 -118 0
-75 -117 0
-75 -116 0
-74 -115 0
-74 -114 0
-74 -113 0
-74 112 0
-73 115 0
-73 114 0
-73 113 0
-73 -112 0
-72 -115 0
-72 114 0
-72 113 0
-72 -112 0
-71 115 0
-71 -114 0
-71 113 0
-71 -112 0
-70 -115 0
-70 -114 0
-70 113 0
-70 -112 0
-69 115 0
-69 114 0
-69 -113 0
-69 -112 0
-68 -115 0
-68 114 0
-68 -113 0
-68 -112 0
-67 115 0
-67 -114 0
-67 -113 0
-67 -112 0
-66 -115 0
-66 -114 0
-66 -113 0
-66 -112 0
-65 -111 0
-65 -110 0
-65 -109 0
-65 108 0
-64 111 0
-64 110 0
-64 109 0
-64 -108 0
-63 -111 0
-63 110 0
-63 109 0
-63 -108 0
-62 111 0
-62 -110 0
-62 109 0
-62 -108 0
-61 -111 0
-61 -110 0
-61 109 0
-61 -108 0
-60 111 0
-60 110 0
-60 -109 0
-60 -108 0
-59 -111 0
-59 110 0
-59 -109 0
-59 -108 0
-58 111 0
-58 -110 0
-58 -109 0
-58 -108 0
-57 -111 0
-57 -110 0
-57 -109 0
-57 -108 0
-56 -107 0
-56 -106 0
-56 -105 0
-56 104 0
-55 107 0
-55 106 0
-55 105 0
-55 -104 0
-54 -107 0
-54 106 0
-54 105 0
-54 -104 0
-53 107 0
-53 -106 0
-53 105 0
-53 -104 0
-52 -107 0
-52 -106 0
-52 105 0
-52 -104 0
-51 107 0
-51 106 0
-51 -105 0
-51 -104 0
-50 -107 0
-50 106 0
-50 -105 0
-50 -104 0
-49 107 0
-49 -106 0
-49 -105 0
-49 -104 0
-48 -107 0
-48 -106 0
-48 -105 0
-48 -104 0
-47 -103 0
-47 -102 0
-47 -101 0
-47 100 0
-46 103 0
-46 102 0
-46 101 0
-46 -100 0
-45 -103 0
-45 102 0
-45 101 0
-45 -100 0
-44 103 0
-44 -102 0
-44 101 0
-44 -100 0
-43 -103 0
-43 -102 0
-43 101 0
-43 -100 0
-42 103 0
-42 102 0
-42 -101 0
-42 -100 0
-41 -103 0
-41 102 0
-41 -101 0
-41 -100 0
-40 103 0
-40 -102 0
-40 -101 0
-40 -100 0
-39 -103 0
-39 -102 0
-39 -101 0
-39 -100 0
-38 -99 0
-38 -98 0
-38 -97 0
-38 96 0
-37 99 0
-37 98 0
-37 97 0
-37 -96 0
-36 -99 0
-36 98 0
-36 97 0
-36 -96 0
-35 99 0
-35 -98 0
-35 97 0
-35 -96 0
-34 -99 0
-34 -98 0
-34 97 0
-34 -96 0
-33 99 0
-33 98 0
-33 -97 0
-33 -96 0
-32 -99 0
-32 98 0
-32 -97 0
-32 -96 0
-31 99 0
-31 -98 0
-31 -97 0
-31 -96 0
-30 -99 0
-30 -98 0
-30 -97 0
-30 -96 0
-29 -95 0
-29 -94 0
-29 -93 0
-29 92 0
-28 95 0
-28 94 0
-28 93 0
-28 -92 0
-27 -95 0
-27 94 0
-27 93 0
-27 -92 0
-26 95 0
-26 -94 0
-26 93 0
-26 -92 0
-25 -95 0
-25 -94 0
-25 93 0
-25 -92 0
-24 95 0
-24 94 0
-24 -93 0
-24 -92 0
-23 -95 0
-23 94 0
-23 -93 0
-23 -92 0
-22 95 0
-22 -94 0
-22 -93 0
-22 -92 0
-21 -95 0
-21 -94 0
-21 -93 0
-21 -92 0
-20 -91 0
-20 -90 0
-20 -89 0
-20 88 0
-19 91 0
-19 90 0
-19 89 0
-19 -88 0
-18 -91 0
-18 90 0
-18 89 0
-18 -88 0
-17 91 0
-17 -90 0
-17 89 0
-17 -88 0
-16 -91 0
-16 -90 0
-16 89 0
-16 -88 0
-15 91 0
-15 90 0
-15 -89 0
-15 -88 0
-14 -91 0
-14 90 0
-14 -89 0
-14 -88 0
-13 91 0
-13 -90 0
-13 -89 0
-13 -88 0
-12 -91 0
-12 -90 0
-12 -89 0
-12 -88 0
-11 -87 0
-11 -86 0
-11 -85 0
-11 84 0
-10 87 0
-10 86 0
-10 85 0
-10 -84 0
-9 -87 0
-9 86 0
-9 85 0
-9 -84 0
-8 87 0
-8 -86 0
-8 85 0
-8 -84 0
-7 -87 0
-7 -86 0
-7 85 0
-7 -84 0
-6 87 0
-6 86 0
-6 -85 0
-6 -84 0
-5 -87 0
-5 86 0
-5 -85 0
-5 -84 0
-4 87 0
-4 -86 0
-4 -85 0
-4 -84 0
-3 -87 0
-3 -86 0
-3 -85 0
-3 -84 0
1 0
-2 0
